(set-logic HORN)
(declare-rel inv1 ( (Array Int Int) (Array Int Int) Int Int))(declare-rel inv2 ( (Array Int Int) (Array Int Int) (Array Int Int) Int Int))(declare-rel fail ( ))(forall ((a (Array Int Int)) (b (Array Int Int)) (N Int))
  (! (inv1 a b 0 N) ))(forall ((b (Array Int Int))
         (i Int)
         (a (Array Int Int))
         (b1 (Array Int Int))
         (i1 Int)
         (N Int))
  (! (let ((a!1 (= (store b i (select a (- N i1))) b1)))
       (=> (and (inv1 a b i N) (< i N) a!1 (= i1 (+ i 1))) (inv1 a b1 i1 N)))
     ))(forall ((i Int)
         (a (Array Int Int))
         (b (Array Int Int))
         (c (Array Int Int))
         (N Int))
  (! (=> (and (inv1 a b i N) (>= i N)) (inv2 a b c 0 N)) ))(forall ((c (Array Int Int))
         (i Int)
         (a (Array Int Int))
         (b (Array Int Int))
         (c1 (Array Int Int))
         (i1 Int)
         (N Int))
  (! (let ((a!1 (= (store c i (select b (- N i1))) c1)))
       (=> (and (inv2 a b c i N) (< i N) a!1 (= i1 (+ i 1))) (inv2 a b c1 i1 N)))
     ))(forall ((b (Array Int Int))
         (i Int)
         (N Int)
         (a (Array Int Int))
         (c (Array Int Int))
         (i1 Int))
  (! (let ((a!1 (and (inv2 a b c i N)
                     (>= i N)
                     (<= 0 i1)
                     (< i1 N)
                     (not (= (select a i1) (select c i1))))))
       (=> a!1 fail))
     ))(assert (not fail))
(check-sat)